results_rootrelaxation/bin012_060_033.srr.sol
solution status: optimal solution found
objective value:                     2.22135007849293
_var794_                            0.387755102040816 	(obj:0)
_var797_                           0.0926216640502371 	(obj:0)
_var800_                           0.0219780219780236 	(obj:0)
_var804_                           0.0423861852433303 	(obj:0)
_var807_                           0.0973312401883811 	(obj:0)
_var814_                            0.540031397174253 	(obj:0)
_var817_                            0.612244897959184 	(obj:0)
_var820_                            0.375196232339089 	(obj:0)
_var826_                            0.180533751962324 	(obj:0)
_var829_                           0.0565149136577737 	(obj:0)
_var831_                            0.244897959183673 	(obj:0)
_var867_                            0.456828885400315 	(obj:0)
_var870_                            0.207221350078491 	(obj:0)
_var874_                            0.102040816326533 	(obj:0)
_var893_                             0.13657770800628 	(obj:1)
_var897_                           0.0847723704866576 	(obj:0)
_var898_                            0.459968602825747 	(obj:0)
_var901_                            0.164835164835164 	(obj:1)
_var903_                            0.109890109890107 	(obj:0)
_var904_                            0.040816326530613 	(obj:1)
_var907_                           0.0156985871271575 	(obj:0)
_var915_                           0.0784929356357893 	(obj:1)
_var920_                            0.335949764521191 	(obj:0)
_var928_                            0.193092621664051 	(obj:0)
_var936_                            0.433281004709577 	(obj:0)
_var942_                            0.204081632653062 	(obj:0)
_var943_                            0.213500784929354 	(obj:0)
_var944_                            0.210361067503923 	(obj:1)
_var947_                           0.0172684458398777 	(obj:0)
_var954_                             0.11773940345369 	(obj:0)
_var959_                            0.177394034536893 	(obj:1)
_var960_                            0.299843014128726 	(obj:0)
_var961_                            0.332810047095759 	(obj:0)
_var962_                            0.100470957613815 	(obj:0)
_var964_                            0.332810047095762 	(obj:1)
_var966_                            0.130298273155416 	(obj:0)
_var967_                            0.105180533751961 	(obj:0)
_var970_                            0.233908948194664 	(obj:0)
_var972_                           0.0251177394034526 	(obj:0)
_var974_                           0.0722135007849313 	(obj:0)
_var976_                            0.114599686028259 	(obj:1)
_var978_                            0.257456828885399 	(obj:0)
_var979_                           0.0737833594976463 	(obj:0)
_var988_                           0.0957613814756696 	(obj:0)
_var989_                           0.0408163265306105 	(obj:0)
_var991_                            0.233908948194664 	(obj:0)
_var992_                            0.125588697017265 	(obj:1)
_var993_                           0.0894819466248034 	(obj:1)
_var997_                            0.387755102040815 	(obj:0)
_var999_                            0.167974882260596 	(obj:0)
_var1000_                         0.00941915227629186 	(obj:1)
_var1001_                          0.0596546310832026 	(obj:1)
_var1002_                           0.210361067503923 	(obj:0)
_var1004_                          0.0957613814756634 	(obj:0)
_var1005_                           0.210361067503923 	(obj:1)
_var1009_                           0.194662480376765 	(obj:0)
_var1010_                           0.105180533751961 	(obj:0)
_var1011_                          0.0769230769230798 	(obj:1)
_var1012_                           0.249607535321824 	(obj:1)
_var1014_                          0.0455259026687561 	(obj:1)
_var1015_                          0.0989010989011065 	(obj:1)
_var1016_                          0.0125588697017288 	(obj:0)
