results_rootrelaxation/bin012_060_033.srr.log
SCIP version 8.0.3.5 [precision: 8 byte] [memory: block] [mode: optimized] [LP solver: Soplex 6.0.1.3] [GitHash: 438792519e]
Copyright (c) 2002-2023 Zuse Institute Berlin (ZIB)

External libraries: 
  Readline 8.1         GNU library for command line editing (gnu.org/s/readline)
  Soplex 6.0.1.3       Linear Programming Solver developed at Zuse Institute Berlin (soplex.zib.de) [GitHash: 713be0fe]
  CppAD 20180000.0     Algorithmic Differentiation of C++ algorithms developed by B. Bell (github.com/coin-or/CppAD)
  ZLIB 1.2.11          General purpose compression library by J. Gailly and M. Adler (zlib.net)
  bliss 0.77           Computing Graph Automorphism Groups by T. Junttila and P. Kaski (www.tcs.hut.fi/Software/bliss/)

user parameter file <scip.set> not found - using default parameters

srr/relaxation = TRUE

read problem <instances/bin012_060_033.srr>
============

Original problem: 
original problem has 0 variables (0 bin, 0 int, 0 impl, 0 cont) and 77 constraints

presolving:
presolving (1 rounds: 1 fast, 1 medium, 1 exhaustive):
 0 deleted vars, 0 deleted constraints, 0 added constraints, 0 tightened bounds, 0 added holes, 0 changed sides, 0 changed coefficients
 0 implications, 0 cliques
presolved problem has 0 variables (0 bin, 0 int, 0 impl, 0 cont) and 77 constraints
     77 constraints of type <linear>
Presolving Time: 0.00

 time | node  | left  |LP iter|LP it/n|mem/heur|mdpt |vars |cons |rows |cuts |sepa|confs|strbr|  dualbound   | primalbound  |  gap   | compl. 
  0.0s|     1 |     0 |     1 |     - |   710k |   0 |   1 |  77 |  77 |   0 |  0 |   0 |   0 |      --      |      --      |    Inf | unknown
r 0.1s|     1 |     0 |  1480 |     - |simplero|   0 | 764 |  77 |  77 |   0 |  0 |   0 |   0 |      --      | 1.932683e+01 |    Inf | unknown
r 0.1s|     1 |     0 |  1500 |     - |simplero|   0 | 775 |  77 |  77 |   0 |  0 |   0 |   0 |      --      | 1.827751e+01 |    Inf | unknown
r 0.1s|     1 |     0 |  1561 |     - |simplero|   0 | 786 |  77 |  77 |   0 |  0 |   0 |   0 |      --      | 1.644437e+01 |    Inf | unknown
r 0.1s|     1 |     0 |  1613 |     - |simplero|   0 | 797 |  77 |  77 |   0 |  0 |   0 |   0 |      --      | 1.483099e+01 |    Inf | unknown
r 0.1s|     1 |     0 |  1688 |     - |simplero|   0 | 808 |  77 |  77 |   0 |  0 |   0 |   0 |      --      | 1.300057e+01 |    Inf | unknown
r 0.1s|     1 |     0 |  1754 |     - |simplero|   0 | 819 |  77 |  77 |   0 |  0 |   0 |   0 |      --      | 1.131484e+01 |    Inf | unknown
r 0.1s|     1 |     0 |  1822 |     - |simplero|   0 | 830 |  77 |  77 |   0 |  0 |   0 |   0 |      --      | 9.739917e+00 |    Inf | unknown
r 0.1s|     1 |     0 |  1860 |     - |simplero|   0 | 841 |  77 |  77 |   0 |  0 |   0 |   0 |      --      | 9.068333e+00 |    Inf | unknown
r 0.1s|     1 |     0 |  1901 |     - |simplero|   0 | 841 |  77 |  77 |   0 |  0 |   0 |   0 |      --      | 8.707057e+00 |    Inf | unknown
r 0.1s|     1 |     0 |  1909 |     - |simplero|   0 | 841 |  77 |  77 |   0 |  0 |   0 |   0 |      --      | 8.693226e+00 |    Inf | unknown
r 0.1s|     1 |     0 |  1958 |     - |simplero|   0 | 852 |  77 |  77 |   0 |  0 |   0 |   0 |      --      | 7.246562e+00 |    Inf | unknown
r 0.1s|     1 |     0 |  1963 |     - |simplero|   0 | 852 |  77 |  77 |   0 |  0 |   0 |   0 |      --      | 7.212756e+00 |    Inf | unknown
r 0.1s|     1 |     0 |  2006 |     - |simplero|   0 | 863 |  77 |  77 |   0 |  0 |   0 |   0 |      --      | 6.292497e+00 |    Inf | unknown
r 0.1s|     1 |     0 |  2012 |     - |simplero|   0 | 863 |  77 |  77 |   0 |  0 |   0 |   0 |      --      | 6.286809e+00 |    Inf | unknown
 time | node  | left  |LP iter|LP it/n|mem/heur|mdpt |vars |cons |rows |cuts |sepa|confs|strbr|  dualbound   | primalbound  |  gap   | compl. 
r 0.1s|     1 |     0 |  2013 |     - |simplero|   0 | 863 |  77 |  77 |   0 |  0 |   0 |   0 |      --      | 6.286658e+00 |    Inf | unknown
r 0.1s|     1 |     0 |  2044 |     - |simplero|   0 | 874 |  77 |  77 |   0 |  0 |   0 |   0 |      --      | 5.344356e+00 |    Inf | unknown
r 0.1s|     1 |     0 |  2066 |     - |simplero|   0 | 874 |  77 |  77 |   0 |  0 |   0 |   0 |      --      | 5.172844e+00 |    Inf | unknown
r 0.1s|     1 |     0 |  2068 |     - |simplero|   0 | 874 |  77 |  77 |   0 |  0 |   0 |   0 |      --      | 5.172001e+00 |    Inf | unknown
r 0.1s|     1 |     0 |  2104 |     - |simplero|   0 | 885 |  77 |  77 |   0 |  0 |   0 |   0 |      --      | 4.515629e+00 |    Inf | unknown
r 0.1s|     1 |     0 |  2118 |     - |simplero|   0 | 885 |  77 |  77 |   0 |  0 |   0 |   0 |      --      | 4.486490e+00 |    Inf | unknown
r 0.1s|     1 |     0 |  2122 |     - |simplero|   0 | 885 |  77 |  77 |   0 |  0 |   0 |   0 |      --      | 4.479485e+00 |    Inf | unknown
r 0.1s|     1 |     0 |  2156 |     - |simplero|   0 | 896 |  77 |  77 |   0 |  0 |   0 |   0 |      --      | 4.178305e+00 |    Inf | unknown
r 0.1s|     1 |     0 |  2174 |     - |simplero|   0 | 896 |  77 |  77 |   0 |  0 |   0 |   0 |      --      | 4.050576e+00 |    Inf | unknown
r 0.1s|     1 |     0 |  2178 |     - |simplero|   0 | 896 |  77 |  77 |   0 |  0 |   0 |   0 |      --      | 4.048441e+00 |    Inf | unknown
r 0.1s|     1 |     0 |  2204 |     - |simplero|   0 | 907 |  77 |  77 |   0 |  0 |   0 |   0 |      --      | 3.812323e+00 |    Inf | unknown
r 0.1s|     1 |     0 |  2205 |     - |simplero|   0 | 907 |  77 |  77 |   0 |  0 |   0 |   0 |      --      | 3.812182e+00 |    Inf | unknown
  0.1s|     1 |     0 |  2206 |     - |  4246k |   0 | 907 |  77 |  77 |   0 |  0 |   0 |   0 |      --      | 3.812182e+00 |    Inf | unknown
r 0.1s|     1 |     0 |  2206 |     - |simplero|   0 | 907 |  77 |  77 |   0 |  0 |   0 |   0 |      --      | 3.812135e+00 |    Inf | unknown
r 0.1s|     1 |     0 |  2252 |     - |simplero|   0 | 918 |  77 |  77 |   0 |  0 |   0 |   0 |      --      | 3.339224e+00 |    Inf | unknown
 time | node  | left  |LP iter|LP it/n|mem/heur|mdpt |vars |cons |rows |cuts |sepa|confs|strbr|  dualbound   | primalbound  |  gap   | compl. 
r 0.1s|     1 |     0 |  2255 |     - |simplero|   0 | 918 |  77 |  77 |   0 |  0 |   0 |   0 |      --      | 3.335023e+00 |    Inf | unknown
r 0.1s|     1 |     0 |  2257 |     - |simplero|   0 | 918 |  77 |  77 |   0 |  0 |   0 |   0 |      --      | 3.334258e+00 |    Inf | unknown
r 0.1s|     1 |     0 |  2298 |     - |simplero|   0 | 929 |  77 |  77 |   0 |  0 |   0 |   0 |      --      | 2.848947e+00 |    Inf | unknown
r 0.1s|     1 |     0 |  2300 |     - |simplero|   0 | 929 |  77 |  77 |   0 |  0 |   0 |   0 |      --      | 2.848621e+00 |    Inf | unknown
r 0.1s|     1 |     0 |  2303 |     - |simplero|   0 | 929 |  77 |  77 |   0 |  0 |   0 |   0 |      --      | 2.848399e+00 |    Inf | unknown
r 0.1s|     1 |     0 |  2323 |     - |simplero|   0 | 940 |  77 |  77 |   0 |  0 |   0 |   0 |      --      | 2.736466e+00 |    Inf | unknown
r 0.1s|     1 |     0 |  2331 |     - |simplero|   0 | 940 |  77 |  77 |   0 |  0 |   0 |   0 |      --      | 2.711468e+00 |    Inf | unknown
r 0.1s|     1 |     0 |  2336 |     - |simplero|   0 | 940 |  77 |  77 |   0 |  0 |   0 |   0 |      --      | 2.706323e+00 |    Inf | unknown
r 0.1s|     1 |     0 |  2357 |     - |simplero|   0 | 951 |  77 |  77 |   0 |  0 |   0 |   0 |      --      | 2.573787e+00 |    Inf | unknown
r 0.1s|     1 |     0 |  2362 |     - |simplero|   0 | 951 |  77 |  77 |   0 |  0 |   0 |   0 |      --      | 2.570118e+00 |    Inf | unknown
r 0.1s|     1 |     0 |  2399 |     - |simplero|   0 | 961 |  77 |  77 |   0 |  0 |   0 |   0 |      --      | 2.447893e+00 |    Inf | unknown
r 0.1s|     1 |     0 |  2406 |     - |simplero|   0 | 961 |  77 |  77 |   0 |  0 |   0 |   0 |      --      | 2.444444e+00 |    Inf | unknown
r 0.1s|     1 |     0 |  2428 |     - |simplero|   0 | 970 |  77 |  77 |   0 |  0 |   0 |   0 |      --      | 2.361292e+00 |    Inf | unknown
r 0.1s|     1 |     0 |  2434 |     - |simplero|   0 | 970 |  77 |  77 |   0 |  0 |   0 |   0 |      --      | 2.356916e+00 |    Inf | unknown
r 0.1s|     1 |     0 |  2461 |     - |simplero|   0 | 979 |  77 |  77 |   0 |  0 |   0 |   0 |      --      | 2.306093e+00 |    Inf | unknown
 time | node  | left  |LP iter|LP it/n|mem/heur|mdpt |vars |cons |rows |cuts |sepa|confs|strbr|  dualbound   | primalbound  |  gap   | compl. 
r 0.1s|     1 |     0 |  2478 |     - |simplero|   0 | 989 |  77 |  77 |   0 |  0 |   0 |   0 |      --      | 2.278261e+00 |    Inf | unknown
r 0.1s|     1 |     0 |  2486 |     - |simplero|   0 | 989 |  77 |  77 |   0 |  0 |   0 |   0 |      --      | 2.270866e+00 |    Inf | unknown
r 0.1s|     1 |     0 |  2497 |     - |simplero|   0 | 996 |  77 |  77 |   0 |  0 |   0 |   0 |      --      | 2.255901e+00 |    Inf | unknown
r 0.1s|     1 |     0 |  2517 |     - |simplero|   0 |1004 |  77 |  77 |   0 |  0 |   0 |   0 |      --      | 2.238462e+00 |    Inf | unknown
r 0.1s|     1 |     0 |  2530 |     - |simplero|   0 |1008 |  77 |  77 |   0 |  0 |   0 |   0 |      --      | 2.231214e+00 |    Inf | unknown
r 0.1s|     1 |     0 |  2543 |     - |simplero|   0 |1012 |  77 |  77 |   0 |  0 |   0 |   0 |      --      | 2.224515e+00 |    Inf | unknown
r 0.1s|     1 |     0 |  2545 |     - |simplero|   0 |1014 |  77 |  77 |   0 |  0 |   0 |   0 |      --      | 2.223022e+00 |    Inf | unknown
r 0.1s|     1 |     0 |  2547 |     - |simplero|   0 |1015 |  77 |  77 |   0 |  0 |   0 |   0 |      --      | 2.221996e+00 |    Inf | unknown
r 0.1s|     1 |     0 |  2550 |     - |simplero|   0 |1016 |  77 |  77 |   0 |  0 |   0 |   0 |      --      | 2.221411e+00 |    Inf | unknown
r 0.1s|     1 |     0 |  2552 |     - |simplero|   0 |1017 |  77 |  77 |   0 |  0 |   0 |   0 |      --      | 2.221350e+00 |    Inf | unknown
  0.1s|     1 |     0 |  2552 |     - |  5455k |   0 |1017 |  77 |  77 |   0 |  0 |   0 |   0 | 2.221350e+00 | 2.221350e+00 |   0.00%| unknown
  0.1s|     1 |     0 |  2552 |     - |  5455k |   0 |1017 |  77 |  77 |   0 |  0 |   0 |   0 | 2.221350e+00 | 2.221350e+00 |   0.00%| unknown

SCIP Status        : problem is solved [optimal solution found]
Solving Time (sec) : 0.13
Solving Nodes      : 1
Primal Bound       : +2.22135007849293e+00 (53 solutions)
Dual Bound         : +2.22135007849293e+00
Gap                : 0.00 %

written transformed problem to file <results_rootrelaxation/bin012_060_033.srr.lp>
written transformed problem to file <results_rootrelaxation/bin012_060_033.srr.cip>


SCIP version 8.0.3.5 [precision: 8 byte] [memory: block] [mode: optimized] [LP solver: Soplex 6.0.1.3] [GitHash: 438792519e]
Copyright (c) 2002-2023 Zuse Institute Berlin (ZIB)

External libraries: 
  Readline 8.1         GNU library for command line editing (gnu.org/s/readline)
  Soplex 6.0.1.3       Linear Programming Solver developed at Zuse Institute Berlin (soplex.zib.de) [GitHash: 713be0fe]
  CppAD 20180000.0     Algorithmic Differentiation of C++ algorithms developed by B. Bell (github.com/coin-or/CppAD)
  ZLIB 1.2.11          General purpose compression library by J. Gailly and M. Adler (zlib.net)
  bliss 0.77           Computing Graph Automorphism Groups by T. Junttila and P. Kaski (www.tcs.hut.fi/Software/bliss/)

user parameter file <scip.set> not found - using default parameters

srr/relaxation = TRUE

read problem <instances/bin012_060_033.srr>
============

Original problem: 
original problem has 0 variables (0 bin, 0 int, 0 impl, 0 cont) and 77 constraints

presolving:
presolving (1 rounds: 1 fast, 1 medium, 1 exhaustive):
 0 deleted vars, 0 deleted constraints, 0 added constraints, 0 tightened bounds, 0 added holes, 0 changed sides, 0 changed coefficients
 0 implications, 0 cliques
presolved problem has 0 variables (0 bin, 0 int, 0 impl, 0 cont) and 77 constraints
     77 constraints of type <linear>
Presolving Time: 0.00

 time | node  | left  |LP iter|LP it/n|mem/heur|mdpt |vars |cons |rows |cuts |sepa|confs|strbr|  dualbound   | primalbound  |  gap   | compl. 
  0.0s|     1 |     0 |     1 |     - |   710k |   0 |   1 |  77 |  77 |   0 |  0 |   0 |   0 |      --      |      --      |    Inf | unknown
r 0.1s|     1 |     0 |  1480 |     - |simplero|   0 | 764 |  77 |  77 |   0 |  0 |   0 |   0 |      --      | 1.932683e+01 |    Inf | unknown
r 0.1s|     1 |     0 |  1500 |     - |simplero|   0 | 775 |  77 |  77 |   0 |  0 |   0 |   0 |      --      | 1.827751e+01 |    Inf | unknown
r 0.1s|     1 |     0 |  1561 |     - |simplero|   0 | 786 |  77 |  77 |   0 |  0 |   0 |   0 |      --      | 1.644437e+01 |    Inf | unknown
r 0.1s|     1 |     0 |  1613 |     - |simplero|   0 | 797 |  77 |  77 |   0 |  0 |   0 |   0 |      --      | 1.483099e+01 |    Inf | unknown
r 0.1s|     1 |     0 |  1688 |     - |simplero|   0 | 808 |  77 |  77 |   0 |  0 |   0 |   0 |      --      | 1.300057e+01 |    Inf | unknown
r 0.1s|     1 |     0 |  1754 |     - |simplero|   0 | 819 |  77 |  77 |   0 |  0 |   0 |   0 |      --      | 1.131484e+01 |    Inf | unknown
r 0.1s|     1 |     0 |  1822 |     - |simplero|   0 | 830 |  77 |  77 |   0 |  0 |   0 |   0 |      --      | 9.739917e+00 |    Inf | unknown
r 0.1s|     1 |     0 |  1860 |     - |simplero|   0 | 841 |  77 |  77 |   0 |  0 |   0 |   0 |      --      | 9.068333e+00 |    Inf | unknown
r 0.1s|     1 |     0 |  1901 |     - |simplero|   0 | 841 |  77 |  77 |   0 |  0 |   0 |   0 |      --      | 8.707057e+00 |    Inf | unknown
r 0.1s|     1 |     0 |  1909 |     - |simplero|   0 | 841 |  77 |  77 |   0 |  0 |   0 |   0 |      --      | 8.693226e+00 |    Inf | unknown
r 0.1s|     1 |     0 |  1958 |     - |simplero|   0 | 852 |  77 |  77 |   0 |  0 |   0 |   0 |      --      | 7.246562e+00 |    Inf | unknown
r 0.1s|     1 |     0 |  1963 |     - |simplero|   0 | 852 |  77 |  77 |   0 |  0 |   0 |   0 |      --      | 7.212756e+00 |    Inf | unknown
r 0.1s|     1 |     0 |  2006 |     - |simplero|   0 | 863 |  77 |  77 |   0 |  0 |   0 |   0 |      --      | 6.292497e+00 |    Inf | unknown
r 0.1s|     1 |     0 |  2012 |     - |simplero|   0 | 863 |  77 |  77 |   0 |  0 |   0 |   0 |      --      | 6.286809e+00 |    Inf | unknown
 time | node  | left  |LP iter|LP it/n|mem/heur|mdpt |vars |cons |rows |cuts |sepa|confs|strbr|  dualbound   | primalbound  |  gap   | compl. 
r 0.1s|     1 |     0 |  2013 |     - |simplero|   0 | 863 |  77 |  77 |   0 |  0 |   0 |   0 |      --      | 6.286658e+00 |    Inf | unknown
r 0.1s|     1 |     0 |  2044 |     - |simplero|   0 | 874 |  77 |  77 |   0 |  0 |   0 |   0 |      --      | 5.344356e+00 |    Inf | unknown
r 0.1s|     1 |     0 |  2066 |     - |simplero|   0 | 874 |  77 |  77 |   0 |  0 |   0 |   0 |      --      | 5.172844e+00 |    Inf | unknown
r 0.1s|     1 |     0 |  2068 |     - |simplero|   0 | 874 |  77 |  77 |   0 |  0 |   0 |   0 |      --      | 5.172001e+00 |    Inf | unknown
r 0.1s|     1 |     0 |  2104 |     - |simplero|   0 | 885 |  77 |  77 |   0 |  0 |   0 |   0 |      --      | 4.515629e+00 |    Inf | unknown
r 0.1s|     1 |     0 |  2118 |     - |simplero|   0 | 885 |  77 |  77 |   0 |  0 |   0 |   0 |      --      | 4.486490e+00 |    Inf | unknown
r 0.1s|     1 |     0 |  2122 |     - |simplero|   0 | 885 |  77 |  77 |   0 |  0 |   0 |   0 |      --      | 4.479485e+00 |    Inf | unknown
r 0.1s|     1 |     0 |  2156 |     - |simplero|   0 | 896 |  77 |  77 |   0 |  0 |   0 |   0 |      --      | 4.178305e+00 |    Inf | unknown
r 0.1s|     1 |     0 |  2174 |     - |simplero|   0 | 896 |  77 |  77 |   0 |  0 |   0 |   0 |      --      | 4.050576e+00 |    Inf | unknown
r 0.1s|     1 |     0 |  2178 |     - |simplero|   0 | 896 |  77 |  77 |   0 |  0 |   0 |   0 |      --      | 4.048441e+00 |    Inf | unknown
r 0.1s|     1 |     0 |  2204 |     - |simplero|   0 | 907 |  77 |  77 |   0 |  0 |   0 |   0 |      --      | 3.812323e+00 |    Inf | unknown
r 0.1s|     1 |     0 |  2205 |     - |simplero|   0 | 907 |  77 |  77 |   0 |  0 |   0 |   0 |      --      | 3.812182e+00 |    Inf | unknown
  0.1s|     1 |     0 |  2206 |     - |  4246k |   0 | 907 |  77 |  77 |   0 |  0 |   0 |   0 |      --      | 3.812182e+00 |    Inf | unknown
r 0.1s|     1 |     0 |  2206 |     - |simplero|   0 | 907 |  77 |  77 |   0 |  0 |   0 |   0 |      --      | 3.812135e+00 |    Inf | unknown
r 0.1s|     1 |     0 |  2252 |     - |simplero|   0 | 918 |  77 |  77 |   0 |  0 |   0 |   0 |      --      | 3.339224e+00 |    Inf | unknown
 time | node  | left  |LP iter|LP it/n|mem/heur|mdpt |vars |cons |rows |cuts |sepa|confs|strbr|  dualbound   | primalbound  |  gap   | compl. 
r 0.1s|     1 |     0 |  2255 |     - |simplero|   0 | 918 |  77 |  77 |   0 |  0 |   0 |   0 |      --      | 3.335023e+00 |    Inf | unknown
r 0.1s|     1 |     0 |  2257 |     - |simplero|   0 | 918 |  77 |  77 |   0 |  0 |   0 |   0 |      --      | 3.334258e+00 |    Inf | unknown
r 0.1s|     1 |     0 |  2298 |     - |simplero|   0 | 929 |  77 |  77 |   0 |  0 |   0 |   0 |      --      | 2.848947e+00 |    Inf | unknown
r 0.1s|     1 |     0 |  2300 |     - |simplero|   0 | 929 |  77 |  77 |   0 |  0 |   0 |   0 |      --      | 2.848621e+00 |    Inf | unknown
r 0.1s|     1 |     0 |  2303 |     - |simplero|   0 | 929 |  77 |  77 |   0 |  0 |   0 |   0 |      --      | 2.848399e+00 |    Inf | unknown
r 0.1s|     1 |     0 |  2323 |     - |simplero|   0 | 940 |  77 |  77 |   0 |  0 |   0 |   0 |      --      | 2.736466e+00 |    Inf | unknown
r 0.1s|     1 |     0 |  2331 |     - |simplero|   0 | 940 |  77 |  77 |   0 |  0 |   0 |   0 |      --      | 2.711468e+00 |    Inf | unknown
r 0.1s|     1 |     0 |  2336 |     - |simplero|   0 | 940 |  77 |  77 |   0 |  0 |   0 |   0 |      --      | 2.706323e+00 |    Inf | unknown
r 0.1s|     1 |     0 |  2357 |     - |simplero|   0 | 951 |  77 |  77 |   0 |  0 |   0 |   0 |      --      | 2.573787e+00 |    Inf | unknown
r 0.1s|     1 |     0 |  2362 |     - |simplero|   0 | 951 |  77 |  77 |   0 |  0 |   0 |   0 |      --      | 2.570118e+00 |    Inf | unknown
r 0.1s|     1 |     0 |  2399 |     - |simplero|   0 | 961 |  77 |  77 |   0 |  0 |   0 |   0 |      --      | 2.447893e+00 |    Inf | unknown
r 0.1s|     1 |     0 |  2406 |     - |simplero|   0 | 961 |  77 |  77 |   0 |  0 |   0 |   0 |      --      | 2.444444e+00 |    Inf | unknown
r 0.1s|     1 |     0 |  2428 |     - |simplero|   0 | 970 |  77 |  77 |   0 |  0 |   0 |   0 |      --      | 2.361292e+00 |    Inf | unknown
r 0.1s|     1 |     0 |  2434 |     - |simplero|   0 | 970 |  77 |  77 |   0 |  0 |   0 |   0 |      --      | 2.356916e+00 |    Inf | unknown
r 0.1s|     1 |     0 |  2461 |     - |simplero|   0 | 979 |  77 |  77 |   0 |  0 |   0 |   0 |      --      | 2.306093e+00 |    Inf | unknown
 time | node  | left  |LP iter|LP it/n|mem/heur|mdpt |vars |cons |rows |cuts |sepa|confs|strbr|  dualbound   | primalbound  |  gap   | compl. 
r 0.1s|     1 |     0 |  2478 |     - |simplero|   0 | 989 |  77 |  77 |   0 |  0 |   0 |   0 |      --      | 2.278261e+00 |    Inf | unknown
r 0.1s|     1 |     0 |  2486 |     - |simplero|   0 | 989 |  77 |  77 |   0 |  0 |   0 |   0 |      --      | 2.270866e+00 |    Inf | unknown
r 0.1s|     1 |     0 |  2497 |     - |simplero|   0 | 996 |  77 |  77 |   0 |  0 |   0 |   0 |      --      | 2.255901e+00 |    Inf | unknown
r 0.1s|     1 |     0 |  2517 |     - |simplero|   0 |1004 |  77 |  77 |   0 |  0 |   0 |   0 |      --      | 2.238462e+00 |    Inf | unknown
r 0.1s|     1 |     0 |  2530 |     - |simplero|   0 |1008 |  77 |  77 |   0 |  0 |   0 |   0 |      --      | 2.231214e+00 |    Inf | unknown
r 0.1s|     1 |     0 |  2543 |     - |simplero|   0 |1012 |  77 |  77 |   0 |  0 |   0 |   0 |      --      | 2.224515e+00 |    Inf | unknown
r 0.1s|     1 |     0 |  2545 |     - |simplero|   0 |1014 |  77 |  77 |   0 |  0 |   0 |   0 |      --      | 2.223022e+00 |    Inf | unknown
r 0.1s|     1 |     0 |  2547 |     - |simplero|   0 |1015 |  77 |  77 |   0 |  0 |   0 |   0 |      --      | 2.221996e+00 |    Inf | unknown
r 0.1s|     1 |     0 |  2550 |     - |simplero|   0 |1016 |  77 |  77 |   0 |  0 |   0 |   0 |      --      | 2.221411e+00 |    Inf | unknown
r 0.1s|     1 |     0 |  2552 |     - |simplero|   0 |1017 |  77 |  77 |   0 |  0 |   0 |   0 |      --      | 2.221350e+00 |    Inf | unknown
  0.1s|     1 |     0 |  2552 |     - |  5455k |   0 |1017 |  77 |  77 |   0 |  0 |   0 |   0 | 2.221350e+00 | 2.221350e+00 |   0.00%| unknown
  0.1s|     1 |     0 |  2552 |     - |  5455k |   0 |1017 |  77 |  77 |   0 |  0 |   0 |   0 | 2.221350e+00 | 2.221350e+00 |   0.00%| unknown

SCIP Status        : problem is solved [optimal solution found]
Solving Time (sec) : 0.12
Solving Nodes      : 1
Primal Bound       : +2.22135007849293e+00 (53 solutions)
Dual Bound         : +2.22135007849293e+00
Gap                : 0.00 %

written transformed problem to file <results_rootrelaxation/bin012_060_033.srr.lp>
written transformed problem to file <results_rootrelaxation/bin012_060_033.srr.cip>

written solution information to file <results_rootrelaxation/bin012_060_033.srr.sol>



